language ESSENCE' 1.0

letting boxes_PartitionAsSet_ExplicitR6_ExplicitVarSizeWithDummy be
        [[1, 4, 4; int(1..3)], [2, 4, 4; int(1..3)], [3, 4, 4; int(1..3)]; int(1..3)]
$ Visualisation for boxes_PartitionAsSet_ExplicitR6_ExplicitVarSizeWithDummy
$ 1 4 4
$ 2 4 4
$ 3 4 4

